9329
4996
7935
2240
4837
9218
3225
6058
7030
9292
5484
4430
9494
6982
9863
9480
5823
7704
7556
4723
3223
9654
3682
4026
5343
4206
5689
1411
9371
3046
4816
1160
2407
10033
9933
5912
6614
8447
6077
979
9649
9384
8186
9549
2781
9105
8973
2375
8116
1343
9974
